nN = 10;
nR = 40;
nH = 1;

a = [[17, 21, 25, 19, 24, 22, 24, 20, 23, 15, 16, 17, 23, 21, 20, 21, 22, 19, 24, 22, 16, 23, 24, 16, 24, 15, 17, 17, 19, 19, 25, 18, 21, 15, 21, 23, 18, 21, 19, 16], [16, 16, 18, 15, 16, 22, 20, 24, 25, 23, 20, 25, 15, 16, 22, 19, 22, 16, 23, 18, 21, 24, 22, 22, 17, 25, 15, 24, 16, 16, 18, 20, 15, 15, 16, 24, 16, 20, 17, 21], [25, 24, 24, 18, 20, 19, 25, 17, 19, 19, 22, 18, 19, 19, 24, 22, 22, 20, 16, 25, 19, 25, 19, 21, 20, 24, 20, 20, 15, 24, 23, 23, 17, 15, 24, 20, 23, 19, 19, 22], [21, 18, 19, 21, 23, 15, 17, 19, 25, 25, 15, 20, 18, 18, 15, 21, 22, 16, 25, 17, 17, 16, 15, 17, 24, 25, 24, 22, 23, 24, 20, 17, 20, 16, 24, 18, 21, 22, 20, 16], [23, 22, 15, 17, 25, 25, 24, 20, 21, 23, 17, 23, 21, 18, 18, 22, 18, 15, 15, 21, 19, 24, 16, 19, 20, 16, 23, 17, 15, 24, 15, 24, 19, 21, 17, 16, 16, 22, 16, 24], [19, 17, 19, 24, 25, 23, 19, 15, 22, 23, 15, 22, 19, 19, 17, 16, 22, 19, 20, 22, 25, 15, 24, 24, 24, 22, 22, 19, 21, 23, 24, 17, 23, 17, 20, 22, 20, 25, 19, 20], [17, 25, 23, 21, 21, 16, 18, 19, 20, 19, 17, 21, 23, 16, 19, 23, 23, 18, 24, 15, 19, 22, 25, 21, 19, 17, 25, 18, 22, 21, 16, 15, 20, 15, 19, 24, 25, 18, 15, 21], [15, 23, 18, 15, 24, 18, 16, 24, 25, 24, 17, 25, 21, 22, 22, 18, 20, 16, 16, 23, 23, 23, 15, 24, 20, 20, 18, 25, 16, 22, 20, 23, 15, 17, 19, 16, 18, 16, 16, 23], [18, 23, 24, 21, 18, 16, 18, 24, 16, 21, 21, 23, 25, 17, 19, 20, 17, 15, 23, 16, 24, 21, 22, 15, 19, 22, 22, 17, 25, 21, 16, 15, 21, 20, 25, 21, 16, 17, 15, 21], [21, 16, 17, 18, 18, 23, 18, 22, 24, 22, 21, 17, 24, 25, 24, 15, 25, 17, 15, 19, 20, 20, 25, 25, 18, 25, 17, 21, 21, 15, 24, 16, 24, 17, 22, 15, 22, 19, 24, 17]];
c = [[[0, 0, 0, 0, 0, 0, 0, 0, 0, 0, 0, 0, 0, 0, 0, 0, 0, 0, 0, 0, 0, 0, 0, 0, 0, 0, 0, 0, 0, 0, 0, 0, 0, 0, 0, 0, 0, 0, 0, 0], [35, 49, 34, 32, 38, 45, 42, 38, 39, 35, 36, 49, 49, 46, 42, 39, 49, 46, 48, 32, 33, 30, 37, 48, 37, 44, 36, 33, 40, 41, 33, 38, 31, 48, 42, 34, 48, 41, 39, 47], [30, 49, 44, 31, 48, 33, 38, 46, 41, 42, 44, 31, 31, 50, 47, 48, 36, 43, 45, 39, 31, 32, 40, 47, 46, 40, 30, 48, 32, 46, 33, 46, 49, 34, 32, 42, 40, 47, 34, 41], [32, 30, 46, 34, 44, 50, 36, 35, 41, 44, 31, 33, 45, 40, 49, 49, 40, 37, 44, 42, 36, 49, 36, 36, 48, 50, 34, 39, 36, 49, 44, 31, 40, 43, 31, 40, 44, 35, 31, 36], [43, 34, 35, 33, 48, 31, 41, 32, 48, 46, 42, 50, 36, 35, 49, 32, 38, 43, 40, 49, 34, 41, 50, 34, 40, 49, 42, 38, 37, 41, 41, 33, 50, 49, 36, 39, 31, 35, 36, 33], [45, 32, 35, 38, 49, 44, 41, 49, 41, 30, 46, 30, 37, 40, 44, 48, 47, 47, 43, 35, 41, 31, 45, 48, 36, 49, 45, 38, 31, 43, 34, 33, 43, 32, 40, 44, 30, 42, 36, 36], [32, 50, 46, 50, 41, 39, 30, 42, 41, 43, 49, 31, 38, 50, 49, 30, 44, 35, 41, 40, 49, 44, 33, 31, 30, 33, 43, 43, 38, 36, 47, 33, 48, 43, 34, 44, 37, 38, 38, 38], [50, 37, 39, 34, 46, 35, 42, 32, 31, 39, 48, 32, 43, 50, 38, 36, 40, 40, 32, 30, 47, 32, 41, 37, 44, 31, 30, 47, 49, 41, 50, 30, 45, 39, 32, 37, 45, 34, 33, 39], [30, 30, 30, 35, 49, 38, 34, 35, 37, 39, 42, 36, 38, 40, 30, 35, 37, 39, 43, 46, 35, 31, 44, 50, 31, 31, 33, 30, 37, 39, 38, 36, 38, 46, 32, 46, 50, 47, 39, 43], [42, 33, 48, 40, 48, 49, 30, 43, 50, 48, 39, 49, 46, 46, 46, 49, 47, 39, 49, 40, 32, 39, 43, 42, 36, 40, 33, 43, 43, 37, 44, 37, 38, 46, 34, 38, 43, 39, 46, 49]], [[0, 0, 0, 0, 0, 0, 0, 0, 0, 0, 0, 0, 0, 0, 0, 0, 0, 0, 0, 0, 0, 0, 0, 0, 0, 0, 0, 0, 0, 0, 0, 0, 0, 0, 0, 0, 0, 0, 0, 0], [0, 0, 0, 0, 0, 0, 0, 0, 0, 0, 0, 0, 0, 0, 0, 0, 0, 0, 0, 0, 0, 0, 0, 0, 0, 0, 0, 0, 0, 0, 0, 0, 0, 0, 0, 0, 0, 0, 0, 0], [33, 36, 49, 36, 37, 30, 41, 46, 46, 40, 32, 31, 38, 38, 50, 34, 35, 45, 31, 35, 36, 33, 40, 44, 49, 39, 47, 45, 45, 38, 30, 36, 43, 37, 32, 30, 47, 33, 33, 32], [45, 44, 47, 36, 33, 50, 35, 47, 37, 45, 44, 43, 32, 38, 38, 41, 33, 31, 42, 47, 41, 48, 33, 44, 36, 40, 37, 35, 44, 31, 31, 33, 39, 36, 47, 34, 47, 44, 36, 45], [42, 38, 41, 45, 40, 49, 46, 39, 43, 45, 50, 33, 44, 41, 47, 30, 34, 44, 50, 42, 33, 38, 41, 49, 36, 37, 45, 35, 47, 47, 36, 48, 50, 42, 50, 50, 34, 44, 46, 43], [35, 41, 39, 32, 48, 42, 42, 32, 46, 31, 35, 41, 33, 48, 47, 50, 35, 44, 40, 38, 37, 47, 32, 41, 50, 36, 30, 32, 31, 40, 32, 45, 38, 36, 38, 43, 48, 36, 49, 33], [46, 38, 43, 50, 35, 46, 35, 44, 32, 34, 48, 38, 47, 48, 32, 33, 38, 49, 42, 49, 31, 45, 35, 47, 49, 49, 40, 48, 38, 49, 44, 42, 35, 44, 37, 35, 45, 33, 48, 48], [33, 35, 33, 35, 48, 50, 37, 36, 31, 39, 31, 43, 50, 35, 45, 41, 43, 42, 32, 31, 49, 30, 34, 34, 46, 32, 31, 47, 31, 46, 50, 32, 50, 32, 44, 35, 48, 48, 43, 40], [35, 30, 46, 44, 35, 40, 38, 47, 46, 32, 40, 36, 39, 49, 49, 40, 50, 44, 43, 30, 30, 47, 31, 42, 43, 50, 37, 49, 40, 44, 36, 30, 32, 34, 39, 41, 37, 33, 48, 33], [42, 48, 42, 48, 50, 39, 44, 38, 46, 35, 45, 43, 31, 42, 42, 46, 34, 46, 45, 30, 36, 42, 31, 49, 45, 50, 45, 47, 32, 40, 31, 31, 40, 32, 32, 50, 39, 48, 45, 49]], [[0, 0, 0, 0, 0, 0, 0, 0, 0, 0, 0, 0, 0, 0, 0, 0, 0, 0, 0, 0, 0, 0, 0, 0, 0, 0, 0, 0, 0, 0, 0, 0, 0, 0, 0, 0, 0, 0, 0, 0], [0, 0, 0, 0, 0, 0, 0, 0, 0, 0, 0, 0, 0, 0, 0, 0, 0, 0, 0, 0, 0, 0, 0, 0, 0, 0, 0, 0, 0, 0, 0, 0, 0, 0, 0, 0, 0, 0, 0, 0], [0, 0, 0, 0, 0, 0, 0, 0, 0, 0, 0, 0, 0, 0, 0, 0, 0, 0, 0, 0, 0, 0, 0, 0, 0, 0, 0, 0, 0, 0, 0, 0, 0, 0, 0, 0, 0, 0, 0, 0], [30, 46, 49, 38, 36, 39, 50, 36, 41, 42, 42, 32, 43, 43, 43, 36, 33, 47, 30, 44, 35, 45, 37, 39, 33, 30, 37, 42, 40, 30, 37, 39, 45, 36, 44, 47, 34, 37, 50, 48], [36, 39, 36, 48, 40, 34, 41, 32, 45, 49, 48, 48, 34, 48, 44, 30, 32, 42, 48, 50, 36, 30, 40, 30, 44, 40, 36, 43, 47, 38, 34, 37, 36, 39, 49, 45, 32, 47, 45, 40], [37, 50, 50, 34, 32, 33, 37, 44, 46, 47, 40, 42, 45, 46, 38, 32, 39, 35, 48, 49, 41, 41, 41, 49, 38, 42, 38, 39, 30, 45, 50, 32, 31, 37, 31, 47, 39, 47, 38, 41], [30, 37, 31, 45, 45, 40, 47, 42, 46, 30, 37, 50, 49, 43, 49, 40, 38, 35, 44, 31, 43, 44, 39, 42, 41, 41, 43, 50, 32, 37, 34, 46, 43, 37, 35, 46, 43, 40, 31, 39], [45, 43, 40, 34, 35, 36, 41, 32, 44, 46, 47, 39, 50, 42, 35, 40, 46, 39, 37, 31, 30, 40, 34, 42, 47, 41, 45, 42, 44, 47, 34, 37, 40, 38, 41, 44, 42, 47, 45, 35], [46, 49, 32, 40, 35, 50, 34, 39, 41, 47, 49, 44, 35, 47, 30, 45, 44, 35, 45, 49, 42, 37, 31, 42, 50, 40, 48, 35, 34, 31, 46, 41, 36, 46, 50, 48, 49, 40, 31, 40], [32, 32, 32, 36, 33, 40, 40, 50, 32, 30, 35, 49, 32, 45, 49, 40, 33, 31, 31, 47, 50, 36, 37, 36, 36, 50, 43, 49, 37, 31, 31, 41, 30, 44, 48, 42, 31, 43, 30, 35]], [[0, 0, 0, 0, 0, 0, 0, 0, 0, 0, 0, 0, 0, 0, 0, 0, 0, 0, 0, 0, 0, 0, 0, 0, 0, 0, 0, 0, 0, 0, 0, 0, 0, 0, 0, 0, 0, 0, 0, 0], [0, 0, 0, 0, 0, 0, 0, 0, 0, 0, 0, 0, 0, 0, 0, 0, 0, 0, 0, 0, 0, 0, 0, 0, 0, 0, 0, 0, 0, 0, 0, 0, 0, 0, 0, 0, 0, 0, 0, 0], [0, 0, 0, 0, 0, 0, 0, 0, 0, 0, 0, 0, 0, 0, 0, 0, 0, 0, 0, 0, 0, 0, 0, 0, 0, 0, 0, 0, 0, 0, 0, 0, 0, 0, 0, 0, 0, 0, 0, 0], [0, 0, 0, 0, 0, 0, 0, 0, 0, 0, 0, 0, 0, 0, 0, 0, 0, 0, 0, 0, 0, 0, 0, 0, 0, 0, 0, 0, 0, 0, 0, 0, 0, 0, 0, 0, 0, 0, 0, 0], [35, 37, 48, 33, 45, 43, 46, 30, 44, 34, 31, 43, 36, 32, 45, 39, 40, 49, 40, 42, 38, 31, 49, 42, 41, 33, 31, 38, 44, 37, 42, 36, 40, 35, 35, 49, 45, 41, 36, 42], [44, 39, 32, 32, 45, 47, 42, 30, 34, 38, 34, 40, 48, 45, 31, 33, 31, 40, 43, 32, 48, 33, 31, 38, 48, 31, 34, 38, 50, 42, 30, 35, 50, 47, 48, 42, 45, 33, 49, 32], [42, 37, 38, 33, 42, 33, 50, 42, 32, 33, 35, 48, 31, 30, 33, 35, 41, 46, 43, 38, 38, 41, 45, 50, 50, 42, 49, 31, 44, 48, 38, 50, 39, 46, 42, 38, 41, 31, 46, 34], [42, 33, 40, 41, 40, 38, 45, 37, 46, 48, 40, 41, 31, 40, 33, 35, 38, 32, 46, 50, 32, 49, 40, 35, 30, 40, 39, 31, 47, 49, 32, 45, 33, 41, 33, 45, 49, 33, 41, 46], [45, 47, 30, 38, 42, 48, 48, 38, 38, 44, 43, 47, 46, 42, 37, 40, 30, 32, 50, 44, 49, 36, 38, 40, 48, 44, 50, 44, 31, 35, 49, 49, 48, 35, 39, 41, 43, 36, 48, 35], [34, 37, 30, 35, 50, 49, 46, 50, 38, 36, 40, 32, 36, 38, 32, 31, 37, 42, 45, 33, 45, 30, 33, 36, 35, 35, 33, 49, 41, 49, 34, 44, 38, 41, 39, 35, 38, 36, 42, 37]], [[0, 0, 0, 0, 0, 0, 0, 0, 0, 0, 0, 0, 0, 0, 0, 0, 0, 0, 0, 0, 0, 0, 0, 0, 0, 0, 0, 0, 0, 0, 0, 0, 0, 0, 0, 0, 0, 0, 0, 0], [0, 0, 0, 0, 0, 0, 0, 0, 0, 0, 0, 0, 0, 0, 0, 0, 0, 0, 0, 0, 0, 0, 0, 0, 0, 0, 0, 0, 0, 0, 0, 0, 0, 0, 0, 0, 0, 0, 0, 0], [0, 0, 0, 0, 0, 0, 0, 0, 0, 0, 0, 0, 0, 0, 0, 0, 0, 0, 0, 0, 0, 0, 0, 0, 0, 0, 0, 0, 0, 0, 0, 0, 0, 0, 0, 0, 0, 0, 0, 0], [0, 0, 0, 0, 0, 0, 0, 0, 0, 0, 0, 0, 0, 0, 0, 0, 0, 0, 0, 0, 0, 0, 0, 0, 0, 0, 0, 0, 0, 0, 0, 0, 0, 0, 0, 0, 0, 0, 0, 0], [0, 0, 0, 0, 0, 0, 0, 0, 0, 0, 0, 0, 0, 0, 0, 0, 0, 0, 0, 0, 0, 0, 0, 0, 0, 0, 0, 0, 0, 0, 0, 0, 0, 0, 0, 0, 0, 0, 0, 0], [39, 47, 37, 47, 35, 41, 35, 42, 36, 48, 37, 43, 37, 45, 32, 43, 45, 39, 45, 39, 40, 44, 37, 41, 46, 50, 42, 31, 35, 31, 50, 40, 44, 46, 30, 35, 38, 37, 50, 42], [44, 47, 50, 46, 39, 36, 45, 32, 46, 41, 41, 43, 43, 33, 35, 41, 38, 35, 49, 49, 36, 34, 39, 31, 33, 46, 37, 38, 43, 39, 36, 32, 34, 49, 31, 42, 48, 46, 41, 47], [33, 42, 35, 34, 37, 37, 35, 32, 30, 44, 34, 34, 42, 41, 33, 35, 46, 30, 37, 40, 32, 46, 31, 35, 32, 32, 50, 39, 48, 46, 33, 35, 34, 37, 48, 41, 35, 45, 45, 46], [32, 36, 34, 46, 47, 41, 30, 41, 31, 46, 36, 39, 46, 42, 37, 41, 50, 40, 31, 40, 40, 36, 45, 42, 39, 32, 36, 50, 34, 36, 44, 33, 33, 36, 41, 30, 47, 42, 41, 31], [39, 40, 41, 46, 36, 41, 41, 43, 33, 47, 47, 47, 39, 42, 35, 37, 46, 45, 46, 38, 34, 31, 43, 38, 34, 37, 45, 39, 32, 34, 36, 31, 31, 43, 31, 43, 41, 43, 36, 50]], [[0, 0, 0, 0, 0, 0, 0, 0, 0, 0, 0, 0, 0, 0, 0, 0, 0, 0, 0, 0, 0, 0, 0, 0, 0, 0, 0, 0, 0, 0, 0, 0, 0, 0, 0, 0, 0, 0, 0, 0], [0, 0, 0, 0, 0, 0, 0, 0, 0, 0, 0, 0, 0, 0, 0, 0, 0, 0, 0, 0, 0, 0, 0, 0, 0, 0, 0, 0, 0, 0, 0, 0, 0, 0, 0, 0, 0, 0, 0, 0], [0, 0, 0, 0, 0, 0, 0, 0, 0, 0, 0, 0, 0, 0, 0, 0, 0, 0, 0, 0, 0, 0, 0, 0, 0, 0, 0, 0, 0, 0, 0, 0, 0, 0, 0, 0, 0, 0, 0, 0], [0, 0, 0, 0, 0, 0, 0, 0, 0, 0, 0, 0, 0, 0, 0, 0, 0, 0, 0, 0, 0, 0, 0, 0, 0, 0, 0, 0, 0, 0, 0, 0, 0, 0, 0, 0, 0, 0, 0, 0], [0, 0, 0, 0, 0, 0, 0, 0, 0, 0, 0, 0, 0, 0, 0, 0, 0, 0, 0, 0, 0, 0, 0, 0, 0, 0, 0, 0, 0, 0, 0, 0, 0, 0, 0, 0, 0, 0, 0, 0], [0, 0, 0, 0, 0, 0, 0, 0, 0, 0, 0, 0, 0, 0, 0, 0, 0, 0, 0, 0, 0, 0, 0, 0, 0, 0, 0, 0, 0, 0, 0, 0, 0, 0, 0, 0, 0, 0, 0, 0], [43, 47, 41, 37, 39, 40, 30, 50, 45, 33, 46, 42, 40, 43, 45, 35, 31, 31, 30, 42, 37, 44, 47, 36, 43, 38, 39, 37, 47, 36, 32, 48, 41, 35, 37, 45, 50, 47, 31, 45], [31, 40, 44, 42, 32, 42, 38, 43, 43, 45, 48, 45, 41, 50, 33, 34, 48, 35, 43, 43, 48, 44, 40, 30, 36, 47, 35, 32, 50, 45, 38, 32, 47, 41, 33, 37, 38, 45, 38, 46], [42, 48, 50, 44, 36, 42, 34, 50, 32, 30, 38, 33, 38, 37, 42, 38, 40, 38, 36, 34, 44, 30, 35, 46, 48, 31, 34, 40, 31, 30, 35, 34, 48, 40, 34, 48, 42, 33, 42, 35], [46, 44, 30, 50, 36, 31, 40, 31, 44, 41, 49, 33, 36, 45, 48, 33, 45, 32, 46, 41, 43, 35, 44, 32, 48, 38, 37, 30, 46, 40, 46, 30, 31, 44, 35, 47, 36, 32, 43, 46]], [[0, 0, 0, 0, 0, 0, 0, 0, 0, 0, 0, 0, 0, 0, 0, 0, 0, 0, 0, 0, 0, 0, 0, 0, 0, 0, 0, 0, 0, 0, 0, 0, 0, 0, 0, 0, 0, 0, 0, 0], [0, 0, 0, 0, 0, 0, 0, 0, 0, 0, 0, 0, 0, 0, 0, 0, 0, 0, 0, 0, 0, 0, 0, 0, 0, 0, 0, 0, 0, 0, 0, 0, 0, 0, 0, 0, 0, 0, 0, 0], [0, 0, 0, 0, 0, 0, 0, 0, 0, 0, 0, 0, 0, 0, 0, 0, 0, 0, 0, 0, 0, 0, 0, 0, 0, 0, 0, 0, 0, 0, 0, 0, 0, 0, 0, 0, 0, 0, 0, 0], [0, 0, 0, 0, 0, 0, 0, 0, 0, 0, 0, 0, 0, 0, 0, 0, 0, 0, 0, 0, 0, 0, 0, 0, 0, 0, 0, 0, 0, 0, 0, 0, 0, 0, 0, 0, 0, 0, 0, 0], [0, 0, 0, 0, 0, 0, 0, 0, 0, 0, 0, 0, 0, 0, 0, 0, 0, 0, 0, 0, 0, 0, 0, 0, 0, 0, 0, 0, 0, 0, 0, 0, 0, 0, 0, 0, 0, 0, 0, 0], [0, 0, 0, 0, 0, 0, 0, 0, 0, 0, 0, 0, 0, 0, 0, 0, 0, 0, 0, 0, 0, 0, 0, 0, 0, 0, 0, 0, 0, 0, 0, 0, 0, 0, 0, 0, 0, 0, 0, 0], [0, 0, 0, 0, 0, 0, 0, 0, 0, 0, 0, 0, 0, 0, 0, 0, 0, 0, 0, 0, 0, 0, 0, 0, 0, 0, 0, 0, 0, 0, 0, 0, 0, 0, 0, 0, 0, 0, 0, 0], [48, 36, 42, 47, 50, 38, 37, 42, 34, 50, 34, 42, 39, 36, 33, 31, 41, 34, 40, 50, 41, 41, 41, 30, 31, 32, 34, 38, 41, 42, 46, 44, 45, 45, 40, 32, 43, 50, 37, 46], [49, 43, 30, 39, 44, 45, 34, 45, 30, 30, 31, 39, 38, 34, 38, 49, 32, 44, 37, 38, 35, 50, 34, 41, 49, 48, 35, 32, 33, 38, 33, 31, 50, 38, 33, 48, 40, 39, 49, 37], [35, 38, 31, 34, 35, 50, 45, 32, 41, 35, 50, 48, 35, 46, 33, 33, 49, 38, 37, 38, 40, 42, 44, 30, 38, 45, 46, 44, 42, 40, 39, 49, 41, 32, 38, 44, 33, 49, 50, 39]], [[0, 0, 0, 0, 0, 0, 0, 0, 0, 0, 0, 0, 0, 0, 0, 0, 0, 0, 0, 0, 0, 0, 0, 0, 0, 0, 0, 0, 0, 0, 0, 0, 0, 0, 0, 0, 0, 0, 0, 0], [0, 0, 0, 0, 0, 0, 0, 0, 0, 0, 0, 0, 0, 0, 0, 0, 0, 0, 0, 0, 0, 0, 0, 0, 0, 0, 0, 0, 0, 0, 0, 0, 0, 0, 0, 0, 0, 0, 0, 0], [0, 0, 0, 0, 0, 0, 0, 0, 0, 0, 0, 0, 0, 0, 0, 0, 0, 0, 0, 0, 0, 0, 0, 0, 0, 0, 0, 0, 0, 0, 0, 0, 0, 0, 0, 0, 0, 0, 0, 0], [0, 0, 0, 0, 0, 0, 0, 0, 0, 0, 0, 0, 0, 0, 0, 0, 0, 0, 0, 0, 0, 0, 0, 0, 0, 0, 0, 0, 0, 0, 0, 0, 0, 0, 0, 0, 0, 0, 0, 0], [0, 0, 0, 0, 0, 0, 0, 0, 0, 0, 0, 0, 0, 0, 0, 0, 0, 0, 0, 0, 0, 0, 0, 0, 0, 0, 0, 0, 0, 0, 0, 0, 0, 0, 0, 0, 0, 0, 0, 0], [0, 0, 0, 0, 0, 0, 0, 0, 0, 0, 0, 0, 0, 0, 0, 0, 0, 0, 0, 0, 0, 0, 0, 0, 0, 0, 0, 0, 0, 0, 0, 0, 0, 0, 0, 0, 0, 0, 0, 0], [0, 0, 0, 0, 0, 0, 0, 0, 0, 0, 0, 0, 0, 0, 0, 0, 0, 0, 0, 0, 0, 0, 0, 0, 0, 0, 0, 0, 0, 0, 0, 0, 0, 0, 0, 0, 0, 0, 0, 0], [0, 0, 0, 0, 0, 0, 0, 0, 0, 0, 0, 0, 0, 0, 0, 0, 0, 0, 0, 0, 0, 0, 0, 0, 0, 0, 0, 0, 0, 0, 0, 0, 0, 0, 0, 0, 0, 0, 0, 0], [37, 40, 44, 37, 31, 31, 41, 43, 48, 40, 47, 37, 32, 30, 39, 41, 39, 34, 50, 30, 37, 33, 39, 45, 46, 48, 30, 31, 42, 39, 32, 37, 34, 38, 39, 41, 33, 36, 42, 36], [38, 34, 39, 33, 46, 42, 38, 33, 32, 50, 34, 45, 30, 49, 34, 48, 33, 34, 50, 40, 45, 37, 37, 30, 30, 38, 46, 46, 40, 35, 45, 49, 35, 46, 48, 32, 48, 42, 33, 38]], [[0, 0, 0, 0, 0, 0, 0, 0, 0, 0, 0, 0, 0, 0, 0, 0, 0, 0, 0, 0, 0, 0, 0, 0, 0, 0, 0, 0, 0, 0, 0, 0, 0, 0, 0, 0, 0, 0, 0, 0], [0, 0, 0, 0, 0, 0, 0, 0, 0, 0, 0, 0, 0, 0, 0, 0, 0, 0, 0, 0, 0, 0, 0, 0, 0, 0, 0, 0, 0, 0, 0, 0, 0, 0, 0, 0, 0, 0, 0, 0], [0, 0, 0, 0, 0, 0, 0, 0, 0, 0, 0, 0, 0, 0, 0, 0, 0, 0, 0, 0, 0, 0, 0, 0, 0, 0, 0, 0, 0, 0, 0, 0, 0, 0, 0, 0, 0, 0, 0, 0], [0, 0, 0, 0, 0, 0, 0, 0, 0, 0, 0, 0, 0, 0, 0, 0, 0, 0, 0, 0, 0, 0, 0, 0, 0, 0, 0, 0, 0, 0, 0, 0, 0, 0, 0, 0, 0, 0, 0, 0], [0, 0, 0, 0, 0, 0, 0, 0, 0, 0, 0, 0, 0, 0, 0, 0, 0, 0, 0, 0, 0, 0, 0, 0, 0, 0, 0, 0, 0, 0, 0, 0, 0, 0, 0, 0, 0, 0, 0, 0], [0, 0, 0, 0, 0, 0, 0, 0, 0, 0, 0, 0, 0, 0, 0, 0, 0, 0, 0, 0, 0, 0, 0, 0, 0, 0, 0, 0, 0, 0, 0, 0, 0, 0, 0, 0, 0, 0, 0, 0], [0, 0, 0, 0, 0, 0, 0, 0, 0, 0, 0, 0, 0, 0, 0, 0, 0, 0, 0, 0, 0, 0, 0, 0, 0, 0, 0, 0, 0, 0, 0, 0, 0, 0, 0, 0, 0, 0, 0, 0], [0, 0, 0, 0, 0, 0, 0, 0, 0, 0, 0, 0, 0, 0, 0, 0, 0, 0, 0, 0, 0, 0, 0, 0, 0, 0, 0, 0, 0, 0, 0, 0, 0, 0, 0, 0, 0, 0, 0, 0], [0, 0, 0, 0, 0, 0, 0, 0, 0, 0, 0, 0, 0, 0, 0, 0, 0, 0, 0, 0, 0, 0, 0, 0, 0, 0, 0, 0, 0, 0, 0, 0, 0, 0, 0, 0, 0, 0, 0, 0], [37, 41, 41, 33, 31, 47, 37, 45, 35, 46, 46, 46, 49, 48, 32, 42, 50, 50, 30, 43, 50, 36, 43, 46, 44, 46, 40, 41, 36, 45, 39, 46, 39, 41, 49, 48, 31, 50, 45, 38]], [[0, 0, 0, 0, 0, 0, 0, 0, 0, 0, 0, 0, 0, 0, 0, 0, 0, 0, 0, 0, 0, 0, 0, 0, 0, 0, 0, 0, 0, 0, 0, 0, 0, 0, 0, 0, 0, 0, 0, 0], [0, 0, 0, 0, 0, 0, 0, 0, 0, 0, 0, 0, 0, 0, 0, 0, 0, 0, 0, 0, 0, 0, 0, 0, 0, 0, 0, 0, 0, 0, 0, 0, 0, 0, 0, 0, 0, 0, 0, 0], [0, 0, 0, 0, 0, 0, 0, 0, 0, 0, 0, 0, 0, 0, 0, 0, 0, 0, 0, 0, 0, 0, 0, 0, 0, 0, 0, 0, 0, 0, 0, 0, 0, 0, 0, 0, 0, 0, 0, 0], [0, 0, 0, 0, 0, 0, 0, 0, 0, 0, 0, 0, 0, 0, 0, 0, 0, 0, 0, 0, 0, 0, 0, 0, 0, 0, 0, 0, 0, 0, 0, 0, 0, 0, 0, 0, 0, 0, 0, 0], [0, 0, 0, 0, 0, 0, 0, 0, 0, 0, 0, 0, 0, 0, 0, 0, 0, 0, 0, 0, 0, 0, 0, 0, 0, 0, 0, 0, 0, 0, 0, 0, 0, 0, 0, 0, 0, 0, 0, 0], [0, 0, 0, 0, 0, 0, 0, 0, 0, 0, 0, 0, 0, 0, 0, 0, 0, 0, 0, 0, 0, 0, 0, 0, 0, 0, 0, 0, 0, 0, 0, 0, 0, 0, 0, 0, 0, 0, 0, 0], [0, 0, 0, 0, 0, 0, 0, 0, 0, 0, 0, 0, 0, 0, 0, 0, 0, 0, 0, 0, 0, 0, 0, 0, 0, 0, 0, 0, 0, 0, 0, 0, 0, 0, 0, 0, 0, 0, 0, 0], [0, 0, 0, 0, 0, 0, 0, 0, 0, 0, 0, 0, 0, 0, 0, 0, 0, 0, 0, 0, 0, 0, 0, 0, 0, 0, 0, 0, 0, 0, 0, 0, 0, 0, 0, 0, 0, 0, 0, 0], [0, 0, 0, 0, 0, 0, 0, 0, 0, 0, 0, 0, 0, 0, 0, 0, 0, 0, 0, 0, 0, 0, 0, 0, 0, 0, 0, 0, 0, 0, 0, 0, 0, 0, 0, 0, 0, 0, 0, 0], [0, 0, 0, 0, 0, 0, 0, 0, 0, 0, 0, 0, 0, 0, 0, 0, 0, 0, 0, 0, 0, 0, 0, 0, 0, 0, 0, 0, 0, 0, 0, 0, 0, 0, 0, 0, 0, 0, 0, 0]]];

q = [[[9], [14], [23], [14], [12], [6], [15], [16], [15], [12], [14], [18], [9], [22], [8], [23], [6], [19], [6], [8], [8], [15], [7], [16], [24], [5], [18], [16], [13], [13], [11], [7], [19], [19], [15], [21], [20], [18], [11], [8]], [[21], [24], [24], [19], [14], [22], [9], [24], [19], [24], [11], [23], [18], [22], [9], [9], [14], [15], [21], [5], [25], [5], [20], [13], [7], [6], [8], [16], [21], [22], [5], [18], [10], [20], [8], [9], [14], [9], [5], [22]], [[18], [12], [6], [14], [17], [7], [24], [20], [19], [10], [13], [25], [23], [7], [6], [9], [17], [9], [6], [21], [24], [13], [18], [5], [21], [21], [15], [11], [15], [15], [15], [18], [21], [9], [22], [8], [8], [18], [13], [12]], [[23], [7], [9], [13], [7], [17], [14], [10], [17], [9], [11], [22], [25], [19], [12], [5], [20], [5], [24], [22], [7], [11], [24], [19], [8], [15], [9], [21], [11], [9], [15], [12], [18], [25], [8], [14], [20], [21], [22], [8]], [[7], [8], [13], [10], [12], [25], [7], [5], [14], [17], [16], [15], [10], [9], [6], [16], [6], [23], [23], [10], [16], [5], [16], [11], [23], [15], [6], [13], [12], [21], [10], [15], [21], [12], [14], [14], [24], [22], [13], [5]], [[17], [9], [22], [8], [19], [8], [7], [11], [14], [14], [17], [23], [25], [21], [12], [20], [8], [20], [9], [5], [8], [16], [16], [23], [22], [20], [17], [21], [11], [12], [9], [15], [21], [17], [13], [18], [23], [6], [8], [20]], [[14], [12], [24], [12], [14], [5], [24], [11], [13], [21], [15], [18], [14], [18], [5], [11], [21], [16], [5], [17], [6], [10], [21], [11], [13], [24], [13], [25], [10], [21], [11], [22], [11], [16], [15], [17], [21], [11], [21], [24]], [[22], [20], [21], [12], [17], [24], [21], [7], [9], [23], [13], [11], [19], [17], [17], [20], [14], [10], [11], [16], [8], [7], [21], [16], [24], [9], [16], [15], [10], [23], [10], [13], [9], [6], [18], [23], [19], [22], [13], [18]], [[6], [11], [16], [17], [6], [8], [18], [24], [19], [9], [18], [18], [7], [13], [11], [20], [19], [22], [19], [20], [14], [10], [6], [6], [25], [7], [8], [18], [19], [17], [6], [25], [13], [12], [22], [23], [8], [12], [5], [19]], [[7], [14], [11], [6], [11], [25], [18], [10], [9], [10], [13], [23], [12], [17], [11], [14], [12], [19], [20], [8], [8], [8], [20], [25], [19], [21], [25], [23], [23], [11], [19], [13], [21], [25], [20], [22], [16], [8], [24], [20]]];
Q = [[44], [48], [46], [47], [43], [48], [49], [49], [46], [51]];
